Route #1: 6 33 16
Route #2: 51 3 44 32
Route #3: 9 39 12
Route #4: 40 17
Route #5: 26 7 35 8
Route #6: 53 14 19
Route #7: 27 13 54 52
Route #8: 34 46
Route #9: 11 38
Route #10: 10 31 25
Route #11: 50 18 24 49
Route #12: 23 43 41 42 1
Route #13: 22 28 21
Route #14: 47 36 37 20
Route #15: 15 5 29 45
Route #16: 30 48 2
Route #17: 4
Cost 966